src/RACER/swarm_exploration/utils/lkh_mtsp_solver/resource/amtsp_2.atsp
NAME : amtsp
TYPE : ATSP
DIMENSION : 5
EDGE_WEIGHT_TYPE : EXPLICIT
EDGE_WEIGHT_FORMAT : FULL_MATRIX
EDGE_WEIGHT_SECTION
100000 -100000 100000 100000 100000 
100000 100000 477 142 100000 
0 0 100000 179 71 
0 0 179 100000 164 
-100000 100000 71 164 100000 
