src/RACER/swarm_exploration/utils/lkh_mtsp_solver/resource/amtsp_2.tour
NAME : amtsp.-192952.tour
COMMENT : Length = -192952
COMMENT : Found by LKH [Keld Helsgaun] Tue Mar 28 22:28:40 2023
TYPE : TOUR
DIMENSION : 4
TOUR_SECTION
1
2
3
4
-1
EOF
